83
400
319	1
316	1
315	1
313	1
310	1
308	1
306	1
305	2
302	1
301	1
299	1
297	1
296	1
295	1
293	1
291	2
290	1
288	1
286	1
285	1
284	1
282	1
274	1
271	1
263	1
261	1
260	2
254	1
248	1
243	2
240	1
237	1
233	1
229	1
226	1
225	1
220	1
217	1
210	2
208	1
202	1
201	1
200	1
198	2
191	1
190	1
188	1
187	1
183	1
177	1
175	2
172	1
169	2
159	1
155	1
149	1
145	1
141	2
140	2
136	1
131	1
127	1
124	1
123	1
122	1
120	2
116	1
115	1
109	1
107	1
106	1
103	2
102	1
101	1
100	1
96	1
95	1
94	2
89	2
86	1
82	2
81	1
80	3
